(set-logic QF_S)
(declare-fun var0 () String)
(assert (str.in.re var0 (re.++ (re.+ (re.union (str.to.re "0") (str.to.re "1"))) (re.++ (re.union (re.* (str.to.re "222")) (re.* (str.to.re "3"))) (re.++ (re.union (re.+ (str.to.re "44")) (re.+ (str.to.re "55"))) (re.++ (re.+ (re.union (str.to.re "6") (str.to.re "777"))) (re.++ (re.+ (re.+ (str.to.re "8"))) (re.++ (re.+ (re.+ (str.to.re "9"))) (re.++ (re.union (re.union (str.to.re "aaa") (str.to.re "bb")) (re.union (str.to.re "c") (str.to.re "ddd"))) (re.++ (re.union (re.+ (str.to.re "ee")) (re.+ (str.to.re "f"))) (re.++ (re.+ (re.+ (str.to.re "gg"))) (re.+ (re.* (str.to.re "hh"))))))))))))))
(assert (<= 226 (str.len var0)))
(check-sat)